%chk=opt.chk
%nprocshared=8
%mem=8GB
#p opt wB97XD/6-31G(d)

opt

0 1
atomic coordinates
--link1--
%chk=neutral.chk
%oldchk=opt.chk
%nprocshared=8
%mem=8GB
#p wB97XD/DEF2SVP geom=check guess=read

neutral

0 1

--link1--
%chk=anion.chk
%oldchk=opt.chk
%nprocshared=8
%mem=8GB
#p wB97XD/DEF2SVP geom=check guess=read

anion

-1 2

--link1--
%chk=cation.chk
%oldchk=opt.chk
%nprocshared=8
%mem=8GB
#p wB97XD/DEF2SVP geom=check guess=read

cation

1 2

--link1--
%chk=excited.chk
%oldchk=opt.chk
%nprocshared=8
%mem=8GB
#p TD(NState=5) wB97XD/DEF2SVP IOp(9/40=3) geom=check guess=read

excited

0 1
