#p opt b3lyp/6-31g(d) 

title

0 1
O     1.315142     3.229758    -4.024308
C     2.137545     2.294878    -4.217897
C     2.286050     1.195082    -3.241055
C     1.503925     1.170658    -2.072556
C     1.627179     0.120582    -1.147030
C     0.789733     0.088330     0.081667
C     1.500119    -0.073236     1.377541
C     1.137022    -1.094477     2.271550
C     1.800813    -1.245666     3.499990
C     1.361935    -2.327579     4.408614
O     1.922271    -2.529179     5.517910
C     2.855352    -0.364145     3.826713
O     3.531238    -0.481363     5.041232
C     3.228549     0.641097     2.922857
C     2.560089     0.782920     1.706426
C    -0.568253     0.202900     0.023226
C    -1.385401     0.404100     1.248685
C    -2.469723    -0.446127     1.516090
C    -3.255900    -0.267047     2.668315
C    -4.387772    -1.175043     2.949168
O    -4.666784    -2.127471     2.171587
C    -2.952150     0.786557     3.552719
O    -3.717166     0.983597     4.702028
C    -1.878344     1.642624     3.276781
C    -1.103423     1.457488     2.131615
C    -1.299990     0.133391    -1.269293
C    -1.112202    -0.949663    -2.143595
C    -1.792881    -1.007305    -3.373084
C    -1.578033    -2.143233    -4.294093
O    -0.812238    -3.095178    -3.984794
C    -2.682588     0.028659    -3.717026
O    -3.365637    -0.003528    -4.933251
C    -2.885832     1.096546    -2.833089
C    -2.205067     1.146040    -1.616106
C     2.568556    -0.892066    -1.379544
C     3.352229    -0.873822    -2.533938
C     3.215556     0.161029    -3.468680
O     4.003289     0.162587    -4.620214
H     2.737300     2.312099    -5.118697
H     0.798362     1.968427    -1.876717
H     0.334976    -1.774562     2.006240
H     0.538091    -2.968152     4.121678
H     4.286268     0.147278     5.293196
H     4.037131     1.319151     3.165755
H     2.857865     1.571824     1.026914
H    -2.687952    -1.255622     0.830431
H    -4.995257    -1.033667     3.833386
H    -3.519568     1.736993     5.350467
H    -1.644817     2.456916     3.950387
H    -0.285217     2.138557     1.930674
H    -0.433337    -1.744958    -1.862256
H    -2.082442    -2.174080    -5.251162
H    -4.008332     0.732341    -5.201925
H    -3.571652     1.894041    -3.091611
H    -2.370007     1.985208    -0.951600
H     2.685072    -1.705505    -0.673282
H     4.066720    -1.669902    -2.703888
H     4.679588    -0.569080    -4.803148
