#p opt b3lyp/6-31g(d) 

title

0 1
C    -0.925371     0.074208     0.032840
C     0.512318    -0.419182    -0.074315
O     1.377821     0.449380     0.604428
H    -1.022525     1.073072    -0.442857
H    -1.604437    -0.636788    -0.483222
H    -1.223597     0.147244     1.100206
H     0.805780    -0.506016    -1.145105
H     0.585213    -1.427396     0.385335
H     1.494798     1.245478     0.022690
