%chk=opt.chk
%nprocshared=8
%mem=8GB
#p opt wB97XD/6-31G(d)

opt

0 1
N    -4.884952    -0.478054     1.622078
C    -3.663954    -0.521228     0.878986
C    -3.405303    -1.588301     0.007579
C    -2.211619    -1.629780    -0.719334
C    -1.257970    -0.615375    -0.575530
O    -0.079987    -0.685574    -1.333883
C     1.166468    -0.168902    -0.950388
C     2.051764     0.259832    -1.946170
C     3.309459     0.767004    -1.605606
C     3.700979     0.838570    -0.261550
N     4.987445     1.356545     0.087150
C     2.825530     0.391465     0.737713
C     1.567807    -0.115301     0.396846
C    -1.526956     0.465230     0.284078
C    -2.720660     0.507195     1.010836
H    -5.087576     0.314148     2.271874
H    -5.594950    -1.238317     1.528398
H    -4.128315    -2.385767    -0.109441
H    -2.022908    -2.457299    -1.391428
H     1.760288     0.206758    -2.987485
H     3.978506     1.102145    -2.388198
H     5.647565     1.689551    -0.650565
H     5.288948     1.411415     1.085631
H     3.120352     0.428992     1.778909
H     0.918634    -0.482196     1.180896
H    -0.825121     1.283381     0.378052
H    -2.913477     1.343865     1.670552


--link1--
%chk=neutral.chk
%oldchk=opt.chk
%nprocshared=8
%mem=8GB
#p wB97XD/DEF2SVP geom=check guess=read

neutral

0 1

--link1--
%chk=anion.chk
%oldchk=opt.chk
%nprocshared=8
%mem=8GB
#p wB97XD/DEF2SVP geom=check guess=read

anion

-1 2

--link1--
%chk=cation.chk
%oldchk=opt.chk
%nprocshared=8
%mem=8GB
#p wB97XD/DEF2SVP geom=check guess=read

cation

1 2

--link1--
%chk=excited.chk
%oldchk=opt.chk
%nprocshared=8
%mem=8GB
#p TD(NState=5) wB97XD/DEF2SVP IOp(9/40=3) geom=check guess=read

excited

0 1
